c --- [ banner ] -------------------------------------------------------------
c 
c CaDiCaL Radically Simplified CDCL SAT Solver
c Copyright (c) 2016-2021 A. Biere, M. Fleury, N. Froleyks
c 
c Version 1.5.2 9c38a080b32c28d805e8e6ca21849856b0cda605
c g++ (Ubuntu 7.5.0-3ubuntu1~18.04) 7.5.0 -Wall -Wextra -O3 -DNDEBUG
c Wed Feb 16 23:15:36 EST 2022 Linux fac-vanhoeve01 5.4.0-99-generic x86_64
c 
c --- [ limit ] --------------------------------------------------------------
c 
c setting time limit to 600 seconds real time (due to '-t 600')
c setting conflict limit to 1000000000 conflicts (due to '1000000000')
c 
c --- [ parsing input ] ------------------------------------------------------
c 
c reading DIMACS file from 'ddfwcnfs/qg.order100.col_100.cnf'
c opening file to read 'ddfwcnfs/qg.order100.col_100.cnf'
c found 'p cnf 1000000 97534900' header
c parsed 97534900 clauses in 61.11 seconds process time
c closing file 'ddfwcnfs/qg.order100.col_100.cnf'
c after reading 1744410611 bytes 1663.6 MB
c 
c --- [ options ] ------------------------------------------------------------
c 
c all options are set to their default value
c 
c --- [ solving ] ------------------------------------------------------------
c 
c time measured in process time since initialization
c 
c  seconds    reductions  redundant   irredundant
c          MB     restarts       trail         variables
c            level   conflicts       glue            remaining
c 
c * 61.11 7773  0 0   0    0    0  0% 0 97524900 990000 99%
c { 61.25 7777  0 0   0    0    0  0% 0 97524900 990000 99%
c - 78.04 7777 99 1   0  300  135  3% 98 97524900 990000 99%
c } 79.54 7777 101 1   0 1002  588  3% 98 97524900 990000 99%
c [ 79.54 7777  0 1   0 1002  588  0% 0 97524900 990000 99%
c O 79.57 7777 97 1   0 1003  589  3% 97 97524900 990000 99%
c - 132.63 10014 105 2   1 2694 1614  3% 100 97524900 990000 99%
c ] 132.93 10014 105 2   1 3002 1838  3% 100 97524900 990000 99%
c { 132.93 10014 101 2   1 3002 1838  3% 98 97524900 990000 99%
c F 132.95 10014 101 2   1 3004 1840  3% 98 97524900 990000 99%
c # 222.73 9968 102 2   2 6007 3839  3% 99 97524900 990000 99%
c - 268.96 9968 108 3   2 6285 2927  3% 99 97524900 990000 99%
c } 269.17 9968 119 3   2 7002 3516  3% 99 97524900 990000 99%
c [ 269.17 9968 105 3   2 7002 3516  3% 100 97524900 990000 99%
c I 270.20 9968 114 3   4 10008 5740  3% 101 97524900 990000 99%
c - 314.58 9970 3041 4   5 11073 4456  7% 107 97524900 990000 99%
c s 351.64 9970 4983 4   6 13249 5974 12% 117 97524900 990000 99%
c e 474.82 9970 4983 4   6 13249 3567 12% 117 96059700 980100 98%
c s 477.28 9970 4983 4   6 13249 3544 12% 117 96059700 980100 98%
c ^ 498.73 9970 4983 4   6 13249 3544 12% 117 96059700 980100 98%
c 
c  seconds       reductions   redundant     irredundant
c           MB       restarts        trail           variables
c              level     conflicts        glue             remaining
c 
c ] 499.78 9970 4842 4   7 15004 5024 14% 134 96059700 980100 98%
c { 499.78 9970 119 4   7 15004 5024  3% 99 96059700 980100 98%
c B 587.92 9970 156 4   7 15010 5030  3% 99 96059700 980100 98%
c - 632.94 9926 705 5  31 17057 5018  3% 99 96059700 980100 98%
c } 633.99 9926 704 5  31 17058 5019  3% 99 96059700 980100 98%
c ? 633.99 9926 704 5  31 17058 5019  3% 99 96059700 980100 98%
c 
c --- [ result ] -------------------------------------------------------------
c 
c UNKNOWN
c 
c --- [ run-time profiling ] -------------------------------------------------
c 
c process time taken by individual solving procedures
c (percentage relative to process time for solving)
c 
c       315.27   55.03% simplify
c       257.61   44.97% search
c       145.77   25.44% stable
c       111.70   19.50% unstable
c        85.71   14.96% ternary
c        66.47   11.60% vivify
c        61.11   10.67% parse
c        37.05    6.47% subsume
c        32.27    5.63% elim
c         6.57    1.15% probe
c         0.14    0.02% lucky
c   =================================
c       572.88   90.36% solve
c 
c last line shows process time for solving
c (percentage relative to total process time)
c 
c --- [ statistics ] ---------------------------------------------------------
c 
c chronological:              4150        24.33 %  of conflicts
c conflicts:                 17058        29.78    per second
c decisions:                744646      1299.83    per second
c eliminated:                 9900         0.99 %  of all variables
c fixed:                     10000         1.00 %  of all variables
c learned:                   16925        99.22 %  per conflict
c learned_lits:            5550857       100.00 %  learned literals
c minimized:                     0         0.00 %  learned literals
c shrunken:                3413174        61.49 %  learned literals
c minishrunken:              17890         0.32 %  learned literals
c propagations:           18493927         0.03 M  per second
c reduced:                    4659        27.31 %  per conflict
c rephased:                      5      3411.60    interval
c restarts:                     31       550.26    interval
c stabilizing:                   2        58.64 %  of conflicts
c subsumed:                   4840         0.00 %  of all clauses
c strengthened:                 47         0.00 %  of all clauses
c weakened:                1465200         2.00    average size
c 
c seconds are measured in process time for solving
c 
c --- [ resources ] ----------------------------------------------------------
c 
c total process time since initialization:       633.99    seconds
c total real time since initialization:          634.01    seconds
c maximum resident set size of process:        12950.84    MB
c 
c --- [ shutting down ] ------------------------------------------------------
c 
c exit 0
